% Generado automáticamente desde ejemplo_pequeno.mpl.
% No editar manualmente: use el conversor MPL.

n = 4;
m = 3;
p = [2, 0, 2];

escala_v = 10;
v = [0, 5, 10];

escala_costo = 10;
ce = [0, 0, 0];
ct = 35;
maxM = 4;

c = array2d(1..3, 1..3, [
    0, 10, 100,
    100, 0, 100,
    100, 20, 0
]);
